GLPSOL--GLPK LP/MIP Solver 5.0
Parameter(s) specified in the command line:
 --lp ../modeles/2_159.lp --log 2_159.log
Reading problem data from '../modeles/2_159.lp'...
327 rows, 640 columns, 2236 non-zeros
318 integer variables, all of which are binary
975 lines were read
GLPK Integer Optimizer 5.0
327 rows, 640 columns, 2236 non-zeros
318 integer variables, all of which are binary
Preprocessing...
316 constraint coefficient(s) were reduced
327 rows, 638 columns, 2234 non-zeros
318 integer variables, all of which are binary
Scaling...
 A: min|aij| =  1.582e-04  max|aij| =  4.000e+00  ratio =  2.528e+04
GM: min|aij| =  7.931e-02  max|aij| =  1.261e+01  ratio =  1.590e+02
EQ: min|aij| =  6.289e-03  max|aij| =  1.000e+00  ratio =  1.590e+02
2N: min|aij| =  5.063e-03  max|aij| =  1.727e+00  ratio =  3.410e+02
Constructing initial basis...
Size of triangular part is 327
Solving LP relaxation...
GLPK Simplex Optimizer 5.0
327 rows, 638 columns, 2234 non-zeros
      0: obj =   4.000000000e+00 inf =   9.500e+00 (5)
     25: obj =   4.998615506e-01 inf =   0.000e+00 (0)
*   108: obj =  -1.413999326e+00 inf =   4.043e-16 (0)
OPTIMAL LP SOLUTION FOUND
Integer optimization begins...
Long-step dual simplex will be used
+   108: mip =     not found yet >=              -inf        (1; 0)
+   199: >>>>>  -1.413999326e+00 >=  -1.413999326e+00   0.0% (91; 0)
+   199: mip =  -1.413999326e+00 >=     tree is empty   0.0% (0; 181)
INTEGER OPTIMAL SOLUTION FOUND
Time used:   0.0 secs
Memory used: 1.0 Mb (1010812 bytes)
